50
1 0 58
2 0 54
2 1 6
3 0 55
3 1 59
3 2 32
4 0 20
4 1 54
4 2 13
4 3 57
5 0 50
5 1 25
5 2 20
5 3 36
5 4 22
6 0 15
6 1 36
6 2 46
6 3 22
6 4 12
6 5 37
7 0 40
7 1 20
7 2 11
7 3 5
7 4 19
7 5 39
7 6 22
8 0 29
8 1 34
8 2 8
8 3 2
8 4 33
8 5 16
8 6 50
8 7 25
9 0 5
9 1 34
9 2 19
9 3 5
9 4 19
9 5 58
9 6 17
9 7 21
9 8 60
10 0 20
10 1 12
10 2 25
10 3 59
10 4 9
10 5 30
10 6 2
10 7 42
10 8 52
10 9 16
11 0 26
11 1 11
11 2 46
11 3 39
11 4 19
11 5 11
11 6 1
11 7 24
11 8 25
11 9 44
11 10 40
12 0 6
12 1 43
12 2 14
12 3 49
12 4 19
12 5 40
12 6 42
12 7 18
12 8 24
12 9 39
12 10 57
12 11 20
13 0 50
13 1 42
13 2 49
13 3 17
13 4 24
13 5 13
13 6 42
13 7 26
13 8 21
13 9 6
13 10 51
13 11 9
13 12 44
14 0 42
14 1 26
14 2 8
14 3 6
14 4 21
14 5 16
14 6 40
14 7 32
14 8 27
14 9 30
14 10 44
14 11 43
14 12 20
14 13 57
15 0 36
15 1 26
15 2 33
15 3 40
15 4 29
15 5 34
15 6 54
15 7 6
15 8 55
15 9 45
15 10 53
15 11 46
15 12 16
15 13 14
15 14 58
16 0 17
16 1 26
16 2 11
16 3 60
16 4 29
16 5 40
16 6 2
16 7 45
16 8 36
16 9 2
16 10 22
16 11 16
16 12 52
16 13 59
16 14 26
16 15 34
17 0 2
17 1 6
17 2 11
17 3 54
17 4 49
17 5 46
17 6 37
17 7 40
17 8 54
17 9 41
17 10 52
17 11 24
17 12 22
17 13 13
17 14 1
17 15 48
17 16 28
18 0 57
18 1 51
18 2 36
18 3 5
18 4 11
18 5 51
18 6 38
18 7 43
18 8 9
18 9 24
18 10 21
18 11 3
18 12 59
18 13 42
18 14 58
18 15 14
18 16 59
18 17 59
19 0 44
19 1 1
19 2 41
19 3 5
19 4 55
19 5 21
19 6 34
19 7 28
19 8 50
19 9 16
19 10 32
19 11 7
19 12 40
19 13 9
19 14 38
19 15 60
19 16 12
19 17 31
19 18 30
20 0 4
20 1 25
20 2 2
20 3 25
20 4 49
20 5 47
20 6 32
20 7 9
20 8 6
20 9 45
20 10 60
20 11 51
20 12 33
20 13 31
20 14 54
20 15 43
20 16 51
20 17 14
20 18 25
20 19 16
21 0 40
21 1 21
21 2 22
21 3 13
21 4 12
21 5 30
21 6 43
21 7 32
21 8 18
21 9 12
21 10 24
21 11 3
21 12 53
21 13 28
21 14 22
21 15 43
21 16 8
21 17 57
21 18 23
21 19 28
21 20 22
22 0 6
22 1 51
22 2 4
22 3 57
22 4 38
22 5 51
22 6 38
22 7 26
22 8 19
22 9 59
22 10 38
22 11 54
22 12 40
22 13 37
22 14 31
22 15 4
22 16 22
22 17 7
22 18 12
22 19 37
22 20 4
22 21 40
23 0 18
23 1 8
23 2 24
23 3 50
23 4 43
23 5 8
23 6 56
23 7 9
23 8 44
23 9 22
23 10 36
23 11 22
23 12 11
23 13 23
23 14 50
23 15 3
23 16 57
23 17 57
23 18 19
23 19 34
23 20 4
23 21 44
23 22 23
24 0 55
24 1 13
24 2 35
24 3 54
24 4 43
24 5 4
24 6 3
24 7 51
24 8 27
24 9 12
24 10 11
24 11 31
24 12 40
24 13 22
24 14 43
24 15 58
24 16 50
24 17 6
24 18 56
24 19 35
24 20 59
24 21 22
24 22 15
24 23 30
25 0 17
25 1 21
25 2 59
25 3 18
25 4 25
25 5 55
25 6 53
25 7 23
25 8 5
25 9 8
25 10 34
25 11 48
25 12 17
25 13 52
25 14 44
25 15 29
25 16 56
25 17 31
25 18 50
25 19 14
25 20 14
25 21 16
25 22 50
25 23 45
25 24 46
26 0 25
26 1 51
26 2 37
26 3 58
26 4 47
26 5 56
26 6 13
26 7 54
26 8 5
26 9 31
26 10 38
26 11 13
26 12 52
26 13 3
26 14 21
26 15 41
26 16 30
26 17 44
26 18 7
26 19 48
26 20 3
26 21 46
26 22 14
26 23 21
26 24 19
26 25 13
27 0 28
27 1 53
27 2 4
27 3 25
27 4 57
27 5 30
27 6 38
27 7 42
27 8 53
27 9 19
27 10 1
27 11 45
27 12 3
27 13 44
27 14 20
27 15 51
27 16 23
27 17 12
27 18 23
27 19 50
27 20 4
27 21 59
27 22 20
27 23 33
27 24 43
27 25 29
27 26 12
28 0 12
28 1 6
28 2 50
28 3 17
28 4 45
28 5 4
28 6 52
28 7 55
28 8 13
28 9 36
28 10 42
28 11 12
28 12 48
28 13 33
28 14 38
28 15 28
28 16 53
28 17 2
28 18 57
28 19 41
28 20 28
28 21 45
28 22 52
28 23 7
28 24 39
28 25 49
28 26 49
28 27 55
29 0 8
29 1 41
29 2 36
29 3 22
29 4 48
29 5 13
29 6 21
29 7 12
29 8 57
29 9 8
29 10 14
29 11 47
29 12 48
29 13 25
29 14 8
29 15 32
29 16 7
29 17 14
29 18 5
29 19 45
29 20 14
29 21 31
29 22 60
29 23 28
29 24 56
29 25 24
29 26 3
29 27 16
29 28 39
30 0 54
30 1 32
30 2 6
30 3 14
30 4 45
30 5 23
30 6 36
30 7 5
30 8 17
30 9 33
30 10 20
30 11 28
30 12 33
30 13 45
30 14 57
30 15 24
30 16 17
30 17 28
30 18 21
30 19 7
30 20 20
30 21 14
30 22 9
30 23 22
30 24 38
30 25 31
30 26 14
30 27 52
30 28 60
30 29 40
31 0 2
31 1 37
31 2 55
31 3 53
31 4 49
31 5 3
31 6 39
31 7 59
31 8 14
31 9 8
31 10 58
31 11 46
31 12 50
31 13 50
31 14 20
31 15 48
31 16 25
31 17 47
31 18 40
31 19 14
31 20 6
31 21 44
31 22 30
31 23 1
31 24 55
31 25 24
31 26 40
31 27 12
31 28 4
31 29 48
31 30 29
32 0 47
32 1 60
32 2 51
32 3 16
32 4 55
32 5 25
32 6 14
32 7 32
32 8 21
32 9 20
32 10 35
32 11 14
32 12 48
32 13 8
32 14 33
32 15 59
32 16 17
32 17 11
32 18 16
32 19 58
32 20 46
32 21 24
32 22 15
32 23 3
32 24 37
32 25 49
32 26 56
32 27 26
32 28 45
32 29 5
32 30 6
32 31 34
33 0 24
33 1 33
33 2 6
33 3 27
33 4 56
33 5 7
33 6 40
33 7 25
33 8 8
33 9 10
33 10 27
33 11 52
33 12 58
33 13 22
33 14 49
33 15 60
33 16 33
33 17 51
33 18 32
33 19 57
33 20 60
33 21 24
33 22 13
33 23 19
33 24 23
33 25 25
33 26 54
33 27 44
33 28 46
33 29 48
33 30 50
33 31 6
33 32 25
34 0 16
34 1 28
34 2 37
34 3 19
34 4 22
34 5 31
34 6 34
34 7 36
34 8 31
34 9 7
34 10 49
34 11 53
34 12 45
34 13 34
34 14 10
34 15 17
34 16 52
34 17 33
34 18 11
34 19 31
34 20 12
34 21 20
34 22 3
34 23 42
34 24 34
34 25 33
34 26 46
34 27 39
34 28 32
34 29 44
34 30 28
34 31 31
34 32 20
34 33 17
35 0 50
35 1 29
35 2 16
35 3 2
35 4 53
35 5 30
35 6 7
35 7 8
35 8 36
35 9 27
35 10 4
35 11 19
35 12 6
35 13 24
35 14 59
35 15 31
35 16 22
35 17 20
35 18 17
35 19 22
35 20 55
35 21 58
35 22 47
35 23 18
35 24 29
35 25 29
35 26 49
35 27 5
35 28 2
35 29 5
35 30 57
35 31 5
35 32 34
35 33 48
35 34 60
36 0 27
36 1 22
36 2 2
36 3 6
36 4 15
36 5 43
36 6 42
36 7 58
36 8 5
36 9 30
36 10 58
36 11 42
36 12 45
36 13 51
36 14 51
36 15 54
36 16 3
36 17 48
36 18 24
36 19 38
36 20 38
36 21 2
36 22 1
36 23 48
36 24 36
36 25 30
36 26 6
36 27 44
36 28 26
36 29 6
36 30 29
36 31 14
36 32 60
36 33 24
36 34 45
36 35 20
37 0 13
37 1 4
37 2 46
37 3 26
37 4 16
37 5 41
37 6 6
37 7 37
37 8 34
37 9 54
37 10 49
37 11 25
37 12 2
37 13 18
37 14 4
37 15 9
37 16 4
37 17 10
37 18 28
37 19 39
37 20 23
37 21 23
37 22 4
37 23 9
37 24 52
37 25 52
37 26 28
37 27 29
37 28 43
37 29 20
37 30 24
37 31 53
37 32 45
37 33 21
37 34 43
37 35 10
37 36 37
38 0 56
38 1 55
38 2 54
38 3 12
38 4 16
38 5 7
38 6 52
38 7 45
38 8 1
38 9 40
38 10 17
38 11 59
38 12 37
38 13 30
38 14 59
38 15 47
38 16 19
38 17 53
38 18 52
38 19 49
38 20 56
38 21 22
38 22 33
38 23 23
38 24 44
38 25 53
38 26 25
38 27 24
38 28 27
38 29 33
38 30 3
38 31 4
38 32 53
38 33 20
38 34 35
38 35 44
38 36 26
38 37 47
39 0 13
39 1 16
39 2 7
39 3 31
39 4 15
39 5 37
39 6 32
39 7 8
39 8 14
39 9 18
39 10 33
39 11 47
39 12 13
39 13 29
39 14 22
39 15 20
39 16 56
39 17 24
39 18 51
39 19 9
39 20 32
39 21 32
39 22 52
39 23 1
39 24 27
39 25 41
39 26 60
39 27 7
39 28 8
39 29 59
39 30 7
39 31 51
39 32 50
39 33 21
39 34 35
39 35 26
39 36 56
39 37 53
39 38 54
40 0 37
40 1 6
40 2 34
40 3 20
40 4 14
40 5 34
40 6 47
40 7 39
40 8 60
40 9 15
40 10 46
40 11 5
40 12 8
40 13 18
40 14 6
40 15 9
40 16 33
40 17 44
40 18 36
40 19 53
40 20 40
40 21 41
40 22 25
40 23 41
40 24 16
40 25 54
40 26 11
40 27 44
40 28 38
40 29 22
40 30 19
40 31 54
40 32 18
40 33 56
40 34 9
40 35 17
40 36 48
40 37 44
40 38 12
40 39 5
41 0 22
41 1 34
41 2 55
41 3 15
41 4 34
41 5 33
41 6 42
41 7 14
41 8 12
41 9 33
41 10 50
41 11 47
41 12 60
41 13 34
41 14 3
41 15 28
41 16 48
41 17 47
41 18 25
41 19 34
41 20 41
41 21 4
41 22 60
41 23 19
41 24 39
41 25 6
41 26 31
41 27 50
41 28 10
41 29 22
41 30 45
41 31 11
41 32 43
41 33 55
41 34 40
41 35 7
41 36 1
41 37 19
41 38 22
41 39 52
41 40 33
42 0 24
42 1 17
42 2 55
42 3 34
42 4 39
42 5 20
42 6 17
42 7 59
42 8 29
42 9 60
42 10 12
42 11 19
42 12 28
42 13 26
42 14 59
42 15 3
42 16 30
42 17 56
42 18 38
42 19 52
42 20 27
42 21 49
42 22 7
42 23 31
42 24 37
42 25 5
42 26 45
42 27 41
42 28 17
42 29 33
42 30 6
42 31 32
42 32 52
42 33 34
42 34 57
42 35 18
42 36 48
42 37 6
42 38 46
42 39 56
42 40 59
42 41 8
43 0 14
43 1 26
43 2 18
43 3 27
43 4 13
43 5 46
43 6 49
43 7 24
43 8 55
43 9 21
43 10 33
43 11 9
43 12 5
43 13 20
43 14 42
43 15 26
43 16 55
43 17 20
43 18 7
43 19 58
43 20 32
43 21 27
43 22 10
43 23 58
43 24 20
43 25 24
43 26 14
43 27 27
43 28 46
43 29 22
43 30 44
43 31 5
43 32 15
43 33 56
43 34 2
43 35 8
43 36 7
43 37 50
43 38 6
43 39 28
43 40 57
43 41 49
43 42 23
44 0 41
44 1 44
44 2 42
44 3 21
44 4 2
44 5 33
44 6 16
44 7 56
44 8 32
44 9 54
44 10 48
44 11 27
44 12 22
44 13 44
44 14 15
44 15 57
44 16 39
44 17 48
44 18 26
44 19 59
44 20 15
44 21 4
44 22 41
44 23 18
44 24 45
44 25 3
44 26 57
44 27 1
44 28 15
44 29 27
44 30 7
44 31 6
44 32 30
44 33 34
44 34 5
44 35 15
44 36 16
44 37 4
44 38 8
44 39 41
44 40 18
44 41 20
44 42 13
44 43 18
45 0 3
45 1 29
45 2 24
45 3 8
45 4 4
45 5 29
45 6 36
45 7 14
45 8 55
45 9 19
45 10 24
45 11 13
45 12 35
45 13 3
45 14 26
45 15 21
45 16 16
45 17 56
45 18 40
45 19 46
45 20 42
45 21 19
45 22 45
45 23 3
45 24 20
45 25 49
45 26 54
45 27 33
45 28 17
45 29 51
45 30 23
45 31 2
45 32 43
45 33 55
45 34 23
45 35 35
45 36 3
45 37 48
45 38 39
45 39 37
45 40 12
45 41 43
45 42 30
45 43 52
45 44 53
46 0 12
46 1 2
46 2 22
46 3 20
46 4 11
46 5 24
46 6 45
46 7 20
46 8 27
46 9 41
46 10 45
46 11 16
46 12 31
46 13 44
46 14 22
46 15 28
46 16 43
46 17 55
46 18 13
46 19 21
46 20 51
46 21 43
46 22 3
46 23 48
46 24 42
46 25 30
46 26 21
46 27 2
46 28 32
46 29 7
46 30 43
46 31 48
46 32 4
46 33 56
46 34 14
46 35 34
46 36 35
46 37 35
46 38 4
46 39 19
46 40 24
46 41 29
46 42 4
46 43 50
46 44 36
46 45 55
47 0 1
47 1 37
47 2 53
47 3 17
47 4 60
47 5 6
47 6 53
47 7 42
47 8 43
47 9 23
47 10 21
47 11 11
47 12 3
47 13 59
47 14 1
47 15 56
47 16 55
47 17 14
47 18 6
47 19 38
47 20 26
47 21 10
47 22 38
47 23 49
47 24 55
47 25 17
47 26 11
47 27 18
47 28 56
47 29 23
47 30 42
47 31 44
47 32 52
47 33 16
47 34 23
47 35 42
47 36 32
47 37 14
47 38 56
47 39 25
47 40 36
47 41 32
47 42 35
47 43 40
47 44 13
47 45 10
47 46 43
48 0 4
48 1 50
48 2 47
48 3 59
48 4 49
48 5 10
48 6 23
48 7 13
48 8 52
48 9 58
48 10 33
48 11 37
48 12 41
48 13 47
48 14 48
48 15 57
48 16 25
48 17 7
48 18 32
48 19 43
48 20 2
48 21 23
48 22 59
48 23 33
48 24 34
48 25 54
48 26 37
48 27 23
48 28 50
48 29 40
48 30 13
48 31 1
48 32 3
48 33 25
48 34 37
48 35 9
48 36 16
48 37 44
48 38 28
48 39 9
48 40 36
48 41 48
48 42 60
48 43 52
48 44 33
48 45 5
48 46 25
48 47 30
49 0 1
49 1 14
49 2 8
49 3 16
49 4 46
49 5 58
49 6 31
49 7 20
49 8 26
49 9 27
49 10 29
49 11 9
49 12 21
49 13 48
49 14 7
49 15 23
49 16 41
49 17 31
49 18 25
49 19 6
49 20 49
49 21 58
49 22 27
49 23 29
49 24 56
49 25 21
49 26 58
49 27 45
49 28 4
49 29 37
49 30 52
49 31 49
49 32 18
49 33 25
49 34 12
49 35 46
49 36 47
49 37 54
49 38 49
49 39 24
49 40 44
49 41 7
49 42 27
49 43 15
49 44 35
49 45 10
49 46 10
49 47 57
49 48 58
